COLUMNS

passenger_count
pickup_ID
dropoff_ID
request_time_sec
pickup_district
dropoff_district
LDuals
IDuals
vehicle_ID
pick_position
drop_position

REQUESTS_INFO
2      740       605       30547     50        189       133       133       71        1         2         
1      643       779       30568     131       131       132       132       136       1         3         
2      499       399       30565     52        168       101       101       187       1         3         
3      750       651       30556     999       189       199       199       216       1         2         
1      433       371       30517     52        52        188       188       253       1         2         
2      312       438       30523     87        100       182       182       254       1         2         
2      434       189       30559     52        286       125       125       308       1         2         
1      309       286       30562     127       299       133       133       310       1         2         
1      710       119       30569     131       286       101       101       322       1         3         
3      1013      1249      30563     84        129       229       229       325       1         3         
1      726       1128      30560     290       291       139       139       364       1         3         
2      1031      627       30569     50        189       215       215       365       1         2         
3      817       722       30437     290       290       309       309       369       1         2         
3      841       535       30568     290       189       211       211       404       1         3         
1      419       545       30562     168       52        121       121       417       1         3         
4      940       696       30560     291       189       183       183       423       1         2         
1      442       488       30534     168       199       165       165       424       1         2         
1      970       721       30505     290       290       184       184       425       1         2         
1      1027      599       30540     50        280       164       164       429       1         3         
2      433       526       30544     52        52        161       161       432       1         2         
1      915       628       30546     291       189       164       164       453       1         3         
1      927       527       30425     290       52        347       347       472       1         2         
1      499       627       30550     52        189       116       116       475       1         3         
1      887       650       30566     290       189       189       189       524       1         3         
1      791       760       30489     290       291       236       236       534       1         2         
1      886       695       30509     290       189       279       279       542       1         2         
1      817       397       30506     290       168       227       227       550       1         2         
3      958       824       30562     291       291       126       126       593       1         2         
2      792       678       30563     290       290       141       141       604       1         3         
1      930       870       30538     999       291       198       198       629       1         3         
4      816       377       30125     290       168       616       616       630       1         2         
2      772       693       30569     290       280       152       152       682       1         3         
1      859       720       30542     290       290       168       168       698       1         3         
3      745       923       30512     290       290       182       182       731       1         3         
1      923       604       30454     290       189       307       307       745       1         2         
3      325       313       30518     299       87        181       181       756       1         2         
3      533       647       30550     199       280       135       135       793       1         2         
2      772       605       30568     290       189       153       153       806       1         2         
3      1045      1207      30525     291       192       135       135       812       1         2         
4      839       557       30500     290       189       236       236       838       1         2         
1      834       649       30567     290       189       152       152       843       1         4         
1      852       604       30524     291       189       146       146       844       1         3         
3      909       652       30479     290       189       306       306       890       1         2         
2      750       651       30556     999       189       199       199       920       1         3         
2      951       768       30429     290       290       303       303       930       1         2         
2      893       1282      30554     291       192       134       134       965       1         2         
1      345       673       30542     299       189       142       142       970       1         3         
3      989       984       30513     50        291       266       266       991       1         2         
3      912       1024      30534     291       291       180       180       999       1         2         
3      989       399       30435     50        168       336       336       1004      1         2         
2      989       984       30513     50        291       232       232       1006      1         3         
2      989       399       30435     50        168       331       331       1006      2         4         
1      972       10        30511     290       98        196       196       1026      1         3         
3      925       669       30564     290       280       201       201       1050      1         2         
1      1069      604       30545     291       189       209       209       1071      1         2         
2      950       643       30388     290       131       399       399       1078      1         2         
1      951       905       30511     290       290       221       221       1079      1         2         
1      906       1218      30542     290       84        221       221       1133      1         3         
1      816       924       30565     290       290       158       158       1164      1         3         
1      915       923       30566     291       290       113       113       1168      1         3         
1      393       462       30544     52        189       117       117       1186      1         2         
1      885       557       30563     290       189       151       151       1222      1         3         
1      950       814       30557     290       290       146       146       1268      1         2         
1      442       332       30562     168       87        86        86        1285      1         2         
1      1053      883       30501     84        290       277       277       1342      1         2         
1      432       191       30542     52        266       184       184       1352      1         2         
3      1069      719       30520     291       189       234       234       1371      1         2         
2      906       599       30499     290       280       264       264       1461      1         2         
4      864       603       30316     290       189       445       445       1818      1         2         
1      837       693       30535     290       280       171       171       1832      1         3         
1      887       970       30397     290       290       366       366       1843      1         2         
4      818       630       30394     290       189       371       371       1935      1         2         
1      883       1005      30546     290       50        201       201       1952      1         4         
1      946       460       30566     290       189       152       152       1955      1         4         
2      915       1067      30570     291       291       0         0         0         0         0         
1      481       687       30570     189       131       0         0         0         0         0         
1      330       628       30570     127       189       0         0         0         0         0         
3      875       718       30570     291       189       0         0         0         0         0         
2      650       19        30570     189       98        0         0         0         0         0         
2      905       939       30571     290       291       0         0         0         0         0         
1      697       171       30571     189       286       0         0         0         0         0         
1      792       651       30572     290       189       0         0         0         0         0         
1      603       669       30572     189       280       0         0         0         0         0         
1      748       1266      30572     290       192       0         0         0         0         0         
1      842       604       30572     290       189       0         0         0         0         0         
1      597       545       30572     131       52        0         0         0         0         0         
1      860       462       30572     290       189       0         0         0         0         0         
1      909       673       30572     290       189       0         0         0         0         0         
3      654       558       30573     189       189       0         0         0         0         0         
1      238       608       30573     87        189       0         0         0         0         0         
1      421       535       30573     168       189       0         0         0         0         0         
2      99        398       30573     286       168       0         0         0         0         0         
2      654       558       30573     189       189       0         0         0         0         0         
2      650       19        30574     189       98        0         0         0         0         0         
2      1066      473       30574     291       52        0         0         0         0         0         
1      796       679       30574     290       290       0         0         0         0         0         
1      78        154       30574     9         286       0         0         0         0         0         
1      646       328       30574     280       299       0         0         0         0         0         
1      556       479       30574     199       52        0         0         0         0         0         
1      904       698       30574     290       189       0         0         0         0         0         
1      718       555       30575     189       199       0         0         0         0         0         
1      859       722       30575     290       290       0         0         0         0         0         
1      508       991       30575     199       290       0         0         0         0         0         
3      1090      896       30575     291       291       0         0         0         0         0         
1      837       65        30575     290       98        0         0         0         0         0         
3      1098      546       30576     84        52        0         0         0         0         0         
3      1098      546       30576     84        52        0         0         0         0         0         
1      653       633       30576     189       189       0         0         0         0         0         
1      599       507       30576     280       189       0         0         0         0         0         
1      287       43        30576     299       9         0         0         0         0         0         
1      677       922       30576     189       50        0         0         0         0         0         
1      396       307       30577     119       127       0         0         0         0         0         
1      883       804       30577     290       291       0         0         0         0         0         
2      568       1607      30577     52        296       0         0         0         0         0         
1      662       742       30577     131       290       0         0         0         0         0         
1      768       604       30577     290       189       0         0         0         0         0         
1      583       117       30578     189       286       0         0         0         0         0         
1      466       744       30578     199       290       0         0         0         0         0         
1      770       649       30578     290       189       0         0         0         0         0         
1      1169      744       30578     291       290       0         0         0         0         0         
1      861       232       30579     290       266       0         0         0         0         0         
3      452       691       30579     52        131       0         0         0         0         0         
1      523       232       30579     52        266       0         0         0         0         0         
1      596       499       30579     131       52        0         0         0         0         0         
2      527       231       30579     52        266       0         0         0         0         0         
3      527       231       30579     52        266       0         0         0         0         0         
1      992       675       30579     290       189       0         0         0         0         0         
1      391       616       30580     52        131       0         0         0         0         0         
1      183       507       30580     178       189       0         0         0         0         0         
1      929       289       30580     290       127       0         0         0         0         0         
3      621       507       30581     280       189       0         0         0         0         0         
3      621       507       30581     280       189       0         0         0         0         0         
1      913       629       30581     291       189       0         0         0         0         0         
1      827       652       30581     291       189       0         0         0         0         0         
2      859       461       30581     290       189       0         0         0         0         0         
2      963       1151      30581     50        291       0         0         0         0         0         
1      852       760       30581     291       291       0         0         0         0         0         
1      960       1011      30581     291       84        0         0         0         0         0         
1      734       528       30582     131       52        0         0         0         0         0         
1      862       504       30582     290       52        0         0         0         0         0         
1      507       726       30582     189       290       0         0         0         0         0         
2      693       526       30582     280       52        0         0         0         0         0         
1      410       595       30582     52        131       0         0         0         0         0         
1      325       716       30583     299       189       0         0         0         0         0         
1      557       421       30583     189       168       0         0         0         0         0         
1      504       350       30583     52        127       0         0         0         0         0         
3      576       644       30584     189       131       0         0         0         0         0         
1      669       575       30584     280       189       0         0         0         0         0         
1      421       484       30585     168       189       0         0         0         0         0         
2      60        208       30585     9         286       0         0         0         0         0         
2      607       554       30585     189       189       0         0         0         0         0         
1      527       47        30585     52        98        0         0         0         0         0         
3      929       836       30585     290       290       0         0         0         0         0         
3      929       836       30585     290       290       0         0         0         0         0         
1      620       640       30585     131       131       0         0         0         0         0         
1      374       408       30585     119       299       0         0         0         0         0         
1      558       693       30586     189       280       0         0         0         0         0         
2      31        35        30586     9         98        0         0         0         0         0         
3      31        35        30586     9         98        0         0         0         0         0         
1      401       557       30586     999       189       0         0         0         0         0         
1      313       504       30586     87        52        0         0         0         0         0         
1      137       673       30586     286       189       0         0         0         0         0         
1      1128      1031      30586     291       50        0         0         0         0         0         
1      139       135       30586     57        286       0         0         0         0         0         
1      505       600       30586     52        280       0         0         0         0         0         
1      991       695       30586     290       189       0         0         0         0         0         
1      842       924       30587     290       290       0         0         0         0         0         
1      480       671       30588     52        280       0         0         0         0         0         
2      801       673       30588     291       189       0         0         0         0         0         
1      523       603       30589     52        189       0         0         0         0         0         
1      1148      716       30589     291       189       0         0         0         0         0         
1      958       716       30589     291       189       0         0         0         0         0         
1      768       649       30590     290       189       0         0         0         0         0         
1      461       555       30590     189       199       0         0         0         0         0         
1      785       602       30590     50        189       0         0         0         0         0         
2      827       604       30590     291       189       0         0         0         0         0         
1      354       813       30590     119       290       0         0         0         0         0         
3      969       651       30590     290       189       0         0         0         0         0         
2      969       651       30590     290       189       0         0         0         0         0         
1      860       940       30590     290       291       0         0         0         0         0         
1      788       792       30591     290       290       0         0         0         0         0         
1      644       719       30591     131       189       0         0         0         0         0         
1      1001      709       30592     291       131       0         0         0         0         0         
3      771       742       30592     290       290       0         0         0         0         0         
3      771       742       30592     290       290       0         0         0         0         0         
1      532       834       30592     199       290       0         0         0         0         0         
1      824       738       30592     291       189       0         0         0         0         0         
1      857       676       30592     290       189       0         0         0         0         0         
1      532       644       30592     199       131       0         0         0         0         0         
1      255       772       30592     87        290       0         0         0         0         0         
1      671       551       30592     280       189       0         0         0         0         0         
2      1031      970       30593     50        290       0         0         0         0         0         
2      663       527       30593     131       52        0         0         0         0         0         
1      200       511       30593     87        199       0         0         0         0         0         
1      983       1000      30593     291       291       0         0         0         0         0         
1      526       882       30593     52        290       0         0         0         0         0         
1      78        711       30593     9         131       0         0         0         0         0         
1      330       651       30593     127       189       0         0         0         0         0         
1      905       984       30594     290       291       0         0         0         0         0         
1      839       559       30594     290       189       0         0         0         0         0         
2      462       578       30594     189       189       0         0         0         0         0         
1      805       749       30594     291       290       0         0         0         0         0         
1      737       733       30594     189       131       0         0         0         0         0         
2      272       457       30594     127       52        0         0         0         0         0         
1      330       812       30594     127       290       0         0         0         0         0         
1      675       858       30595     189       290       0         0         0         0         0         
1      699       533       30595     290       199       0         0         0         0         0         
1      665       691       30595     131       131       0         0         0         0         0         
1      1011      1568      30595     84        296       0         0         0         0         0         
2      758       710       30596     131       131       0         0         0         0         0         
2      304       522       30596     299       52        0         0         0         0         0         
1      668       650       30596     280       189       0         0         0         0         0         
1      60        391       30596     9         52        0         0         0         0         0         
1      337       629       30596     277       189       0         0         0         0         0         
1      436       600       30596     100       280       0         0         0         0         0         
3      549       556       30596     52        199       0         0         0         0         0         
3      549       556       30596     52        199       0         0         0         0         0         
1      137       189       30596     286       286       0         0         0         0         0         
1      576       717       30597     189       189       0         0         0         0         0         
2      983       946       30597     291       290       0         0         0         0         0         
1      256       507       30597     87        189       0         0         0         0         0         
1      860       850       30597     290       291       0         0         0         0         0         
2      772       602       30598     290       189       0         0         0         0         0         
2      389       674       30598     299       189       0         0         0         0         0         
1      252       627       30598     206       189       0         0         0         0         0         
3      772       602       30598     290       189       0         0         0         0         0         
3      389       674       30598     299       189       0         0         0         0         0         
1      353       555       30599     119       199       0         0         0         0         0         
1      991       552       30599     290       189       0         0         0         0         0         
1      228       695       30599     266       189       0         0         0         0         0         
1      668       640       30599     280       131       0         0         0         0         0         
1      632       507       30599     189       189       0         0         0         0         0         
